32	0

0	1	2
10	1	3
9	1	4
5	1	5
1	1	6
5	1	7
5	1	8
8	1	9
7	1	10
2	1	11
8	1	12
5	1	13
6	1	14
3	1	15
9	1	16
6	1	17
9	1	18
6	1	19
7	1	20
9	1	21
4	1	22
1	1	23
10	1	24
4	1	25
3	1	26
7	1	27
3	2	28	29
5	1	30
1	1	30
2	1	31
1	1	32
0	0
